formal_verification/runs/model_eval_v7_100/case_050/run/model/design_smt2.smt2
; SMT-LIBv2 description generated by Yosys 0.64+40 (git sha1 90b906c4f, clang++ 18.1.8 -fPIC -O3)
; yosys-smt2-module vert_formal_wrap
(declare-sort |vert_formal_wrap_s| 0)
(declare-fun |vert_formal_wrap_is| (|vert_formal_wrap_s|) Bool)
; yosys-smt2-witness {"offset": 0, "path": ["$auto$async2sync.cc:107:execute$50"], "smtname": 0, "smtoffset": 0, "type": "reg", "width": 1}
(declare-fun |vert_formal_wrap#0| (|vert_formal_wrap_s|) (_ BitVec 1)) ; $auto$async2sync.cc:107:execute$50
; yosys-smt2-register $auto$async2sync.cc:107:execute$50 1
(define-fun |vert_formal_wrap_n $auto$async2sync.cc:107:execute$50| ((state |vert_formal_wrap_s|)) Bool (= ((_ extract 0 0) (|vert_formal_wrap#0| state)) #b1))
; yosys-smt2-witness {"offset": 0, "path": ["\\_started"], "smtname": 1, "smtoffset": 0, "type": "reg", "width": 1}
(declare-fun |vert_formal_wrap#1| (|vert_formal_wrap_s|) (_ BitVec 1)) ; \_started
; yosys-smt2-register _started 1
; yosys-smt2-wire _started 1
(define-fun |vert_formal_wrap_n _started| ((state |vert_formal_wrap_s|)) Bool (= ((_ extract 0 0) (|vert_formal_wrap#1| state)) #b1))
; yosys-smt2-wire bx11xxx 32
(define-fun |vert_formal_wrap_n bx11xxx| ((state |vert_formal_wrap_s|)) (_ BitVec 32) #b00000000000000000000000000000000)
; yosys-smt2-wire chip_7 32
(define-fun |vert_formal_wrap_n chip_7| ((state |vert_formal_wrap_s|)) (_ BitVec 32) #b00000000000000000000000000000000)
; yosys-smt2-anyseq vert_formal_wrap#2 1 $auto$setundef.cc:350:execute$77
; yosys-smt2-witness {"offset": 0, "path": ["\\clk_reset_10"], "smtname": 2, "smtoffset": 0, "type": "seq", "width": 1}
(declare-fun |vert_formal_wrap#2| (|vert_formal_wrap_s|) (_ BitVec 1)) ; \clk_reset_10
; yosys-smt2-wire clk_reset_10 1
; yosys-smt2-clock clk_reset_10 negedge
(define-fun |vert_formal_wrap_n clk_reset_10| ((state |vert_formal_wrap_s|)) Bool (= ((_ extract 0 0) (|vert_formal_wrap#2| state)) #b1))
; yosys-smt2-wire control_register_status_status_13 32
(define-fun |vert_formal_wrap_n control_register_status_status_13| ((state |vert_formal_wrap_s|)) (_ BitVec 32) #b00000000000000000000000000000000)
; yosys-smt2-wire hw_18 32
(define-fun |vert_formal_wrap_n hw_18| ((state |vert_formal_wrap_s|)) (_ BitVec 32) #b00000000000000000000000000000000)
; yosys-smt2-wire reg_11 32
(define-fun |vert_formal_wrap_n reg_11| ((state |vert_formal_wrap_s|)) (_ BitVec 32) #b00000000000000000000000000000000)
; yosys-smt2-wire rst 1
(define-fun |vert_formal_wrap_n rst| ((state |vert_formal_wrap_s|)) Bool false)
; yosys-smt2-wire rx_1 32
(define-fun |vert_formal_wrap_n rx_1| ((state |vert_formal_wrap_s|)) (_ BitVec 32) #b00000000000000000000000000000000)
; yosys-smt2-wire sig_11 32
(define-fun |vert_formal_wrap_n sig_11| ((state |vert_formal_wrap_s|)) (_ BitVec 32) #b00000000000000000000000000000000)
; yosys-smt2-wire sig_19 32
(define-fun |vert_formal_wrap_n sig_19| ((state |vert_formal_wrap_s|)) (_ BitVec 32) #b00000000000000000000000000000000)
; yosys-smt2-assume 0 $auto$formalff.cc:987:execute$79
(define-fun |vert_formal_wrap_u 0| ((state |vert_formal_wrap_s|)) Bool (or (= ((_ extract 0 0) (|vert_formal_wrap#2| state)) #b1) (not true))) ; $auto$formalff.cc:987:execute$79
; yosys-smt2-assert 0 _witness_.check_assert_vert_formal_wrap_sv_46_5 vert_formal_wrap.sv:46.7-46.113
(define-fun |vert_formal_wrap_a 0| ((state |vert_formal_wrap_s|)) Bool (or true (not (= ((_ extract 0 0) (|vert_formal_wrap#0| state)) #b1)))) ; _witness_.check_assert_vert_formal_wrap_sv_46_5
; yosys-smt2-assert 1 _witness_.check_assert_vert_formal_wrap_sv_47_12 vert_formal_wrap.sv:47.5-47.109
(define-fun |vert_formal_wrap_a 1| ((state |vert_formal_wrap_s|)) Bool (or true (not (= ((_ extract 0 0) (|vert_formal_wrap#0| state)) #b1)))) ; _witness_.check_assert_vert_formal_wrap_sv_47_12
(define-fun |vert_formal_wrap#3| ((state |vert_formal_wrap_s|)) (_ BitVec 1) (ite (= ((_ extract 0 0) (|vert_formal_wrap#1| state)) #b1) #b1 #b0)) ; $assert$vert_formal_wrap.sv:46$5_EN
; yosys-smt2-assume 1 _witness_.check_assume_vert_formal_wrap_sv_45_3 vert_formal_wrap.sv:45.5-45.18
(define-fun |vert_formal_wrap_u 1| ((state |vert_formal_wrap_s|)) Bool (or true (not (= ((_ extract 0 0) (|vert_formal_wrap#3| state)) #b1)))) ; _witness_.check_assume_vert_formal_wrap_sv_45_3
(define-fun |vert_formal_wrap_a| ((state |vert_formal_wrap_s|)) Bool (and
  (|vert_formal_wrap_a 0| state)
  (|vert_formal_wrap_a 1| state)
))
(define-fun |vert_formal_wrap_u| ((state |vert_formal_wrap_s|)) Bool (and
  (|vert_formal_wrap_u 0| state)
  (|vert_formal_wrap_u 1| state)
))
(define-fun |vert_formal_wrap_i| ((state |vert_formal_wrap_s|)) Bool (and
  (= (= ((_ extract 0 0) (|vert_formal_wrap#0| state)) #b1) false) ; $auto$async2sync.cc:107:execute$50
  (= (= ((_ extract 0 0) (|vert_formal_wrap#1| state)) #b1) false) ; _started
))
(define-fun |vert_formal_wrap_h| ((state |vert_formal_wrap_s|)) Bool true)
(define-fun |vert_formal_wrap_t| ((state |vert_formal_wrap_s|) (next_state |vert_formal_wrap_s|)) Bool (and
  (= #b1 (|vert_formal_wrap#1| next_state)) ; $procdff$43 \_started
  (= (|vert_formal_wrap#3| state) (|vert_formal_wrap#0| next_state)) ; $auto$async2sync.cc:110:execute$52 $auto$async2sync.cc:107:execute$50
)) ; end of module vert_formal_wrap
; yosys-smt2-topmod vert_formal_wrap
; end of yosys output
